benchmarks_vrp/CMT1/fixed_c_size/CMT1_2.vrp
NAME: CMT1_2
TYPE: CVRP
COMMENT: 524.61 - Cluster Nr.2
DIMENSION: 14
CAPACITY: 160
EDGE_WEIGHT_TYPE: EUC_2D
NODE_COORD_TYPE: TWOD_COORDS
NODE_COORD_SECTION: 
10 13 13
12 21 10
2 7 38
6 27 23
9 30 15
1 17 33
13 32 22
14 25 32
5 5 25
11 31 32
3 20 26
4 10 17
7 30 40
8 5 6
DEPOT_SECTION: 
7
-1
DEMAND_SECTION: 
6 3
13 9
1 41
9 16
4 27
8 7
10 9
11 29
7 0
2 28
5 23
12 13
14 25
3 9
EOF
