benchmarks_vrp/CMT1/fixed_c_size/CMT1_2.tour
NAME: CMT1_2 solution
TYPE: TOUR
TOUR_SECTION:
7 1 3 14 11 -1
7 2 5 4 10 8 12 9 13 6 -1
-1
EOF